100 22145714
21 93 16 29 18 58 68 63 70 55 14 46 49 80 47 45 3 19 71 43 69 84 35 32 41 72 78 90 9 59 83 75 91 85 88 28 51 37 11 1 13 60 82 52 81 31 4 95 2 98 48 30 56 7 64 27 40 34 8 33 66 100 99 39 76 62 65 74 97 42 22 17 20 36 86 53 87 24 26 25 67 77 94 6 73 79 23 61 89 10 15 54 96 50 38 92 57 44 12 5 
